(set-option :fmf-bound true)       
(set-option :fs-interleave true) 
(set-option :full-saturate-quant true)            
(set-option :inst-when-tc-first false)
(set-option :uf-ho true)      
(declare-sort b 0) 
(declare-fun c (Int b) b)   
(declare-fun d (Int b) b)  
(assert (forall (( ?e Int ) ( ?f b )) (or  (= (d ?e ?f) (d 0 (c 1 ?f ))))))   
(check-sat)
